CapLotSizing_PM/src/Instancias/TCLSHT/6i6p4m/NBA03.OUT
 CG ITER, OVMR, OVMRUB =           1   10011.3886719    7056.3984375
 CG ITER, OVMR, OVMRUB =           2    7056.3984375    7056.3984375
 CG ITER, OVMR, OVMRUB =           3    7056.3994141    7056.3984375
 CG ITER, OVMR, OVMRUB =           4    7056.3984375    7056.3984375
 CG ITER, OVMR, OVMRUB =           5    7056.3984375    7056.3984375
 CG ITER, OVMR, OVMRUB =           6    7056.3984375    7056.3984375
 CG ITER, OVMR, OVMRUB =           7    7056.3984375    7056.3984375
 CG ITER, OVMR, OVMRUB =           8    7056.3984375    7056.3984375
 CG ITER, OVMR, OVMRUB =           9    7056.3984375    7056.3984375
 CG ITER, OVMR, OVMRUB =          10    7056.3984375    7056.3984375
OVLB =    7056.3984375 OVLUB =    7056.3984375 TIME =       0.3300000
